c @top --> 14
c p3@v1 --> 2
c p3@v2 --> 3
c p3@v3 --> 4
c p2@v0 --> 5
c p2@v1 --> 6
c p2@v2 --> 7
c p2@v3 --> 8
c p2@v4 --> 9
c p0@v2 --> 13
c p3@v0 --> 1
c p1 --> 10
c p0@v0 --> 11
c p0@v1 --> 12
p cnf 14 118
-6 10 -13 -3 0
-8 -13 -10 -3 0
-8 -13 -10 -4 0
-6 10 -13 -2 0
-13 -10 -2 -7 0
-1 -13 -9 -10 0
-12 -6 -10 -3 0
-12 -6 -10 -2 0
-1 -12 -9 -10 0
-12 -6 10 -3 0
-11 10 -7 -4 0
-12 -6 10 -4 0
-11 -6 10 -3 0
-11 -6 10 -2 0
10 -8 -13 -3 0
-11 -6 10 -4 0
10 -8 -13 -2 0
-11 -6 -10 -3 0
-12 -10 -3 -7 0
-1 -8 -13 -10 0
-11 -6 -10 -2 0
-1 -6 -13 -10 0
-1 -5 -13 -10 0
-1 -11 -8 -10 0
-8 -13 -10 -2 0
-13 -10 -7 -4 0
-13 -10 -3 -7 0
-12 10 -3 -7 0
-1 -12 -8 -10 0
-1 10 -8 -13 0
-1 -5 10 -13 0
-11 10 -8 -4 0
-5 10 -13 -3 0
-11 10 -8 -2 0
-5 10 -13 -2 0
-11 10 -8 -3 0
-1 -6 10 -13 0
-12 -8 -10 -3 0
-12 -8 -10 -2 0
-1 -12 -6 10 0
10 -13 -3 -7 0
-1 -11 -9 -10 0
-6 -13 -10 -2 0
-6 -13 -10 -3 0
-1 -11 -10 -7 0
-6 -13 -10 -4 0
-1 -5 -12 -10 0
-13 -9 -10 -4 0
-1 -13 -10 -7 0
-12 10 -8 -3 0
-12 10 -2 -7 0
-1 -12 10 -9 0
-12 -9 -10 -2 0
-1 -12 10 -8 0
-11 10 -3 -7 0
-5 -12 10 -2 0
-12 -10 -2 -7 0
-1 -12 10 -7 0
-5 -12 10 -4 0
-5 -11 10 -2 0
-1 -12 -10 -7 0
-5 -11 10 -4 0
-5 -11 10 -3 0
-1 -5 -11 -10 0
-1 -11 -6 -10 0
10 -13 -2 -7 0
-12 -9 -10 -3 0
10 -13 -9 -3 0
-12 10 -8 -2 0
-11 -10 -2 -7 0
-13 -9 -10 -3 0
-13 -9 -10 -2 0
10 -13 -9 -2 0
-11 -9 -10 -3 0
-5 -11 -10 -2 0
-11 -9 -10 -2 0
-5 -11 -10 -3 0
-11 10 -9 -2 0
-11 10 -2 -7 0
-11 -8 -10 -3 0
-1 -12 -6 -10 0
-11 -8 -10 -2 0
-1 -5 -12 10 0
-11 10 -9 -4 0
-11 10 -9 -3 0
-11 -10 -3 -7 0
-5 -13 -10 -3 0
-5 -13 -10 -2 0
-1 10 -13 -9 0
-5 -12 -10 -2 0
-5 -13 -10 -4 0
-12 10 -9 -3 0
-1 10 -13 -7 0
-5 -12 -10 -3 0
-12 10 -9 -2 0
1 2 3 4 0
-1 -2 0
-1 -3 0
-1 -4 0
-2 -3 0
-2 -4 0
-3 -4 0
5 6 7 8 9 0
-5 -6 0
-5 -7 0
-5 -8 0
-5 -9 0
-6 -7 0
-6 -8 0
-6 -9 0
-7 -8 0
-7 -9 0
-8 -9 0
11 12 13 0
-11 -12 0
-11 -13 0
-12 -13 0
14 -14 0
